


















































































14 17 53 
46 42 
11 74 23 
45 13 
48 35 
51 41 28 
49 16 
36 44 
60 72 25 
76 8 
67 0 
56 22 27 
61 2 30 
33 71 
43 39 52 
55 15 
69 26 40 
63 6 
54 9 29 
24 37 
5 18 12 
47 50 68 
62 4 3 
21 58 
1 34 
31 70 
59 57 7 
73 66 
10 75 20 
19 65 
64 32 
38 
